NAME : mEgtspf.pid12750.gtsp.235592050.tour
COMMENT : Length = 235592050
COMMENT : Found by LKH [Keld Helsgaun] Sun Mar  9 00:21:43 2025
TYPE : TOUR
DIMENSION : 135
TOUR_SECTION
1
128
129
130
131
95
92
93
94
124
125
126
127
13
120
121
122
123
7
37
38
39
36
45
46
47
44
4
100
101
102
103
56
57
58
59
23
20
21
22
96
97
98
99
89
90
91
88
10
51
48
49
50
106
107
104
105
75
72
73
74
5
132
133
134
135
6
77
78
79
76
68
69
70
71
27
24
25
26
111
108
109
110
31
28
29
30
12
2
42
43
40
41
67
64
65
66
9
60
61
62
63
119
116
117
118
11
115
112
113
114
15
17
18
19
16
8
32
33
34
35
14
86
87
84
85
82
83
80
81
3
53
54
55
52
-1
EOF
